(declare-sort Loc 0)
(declare-const f1431_0_remove_FieldAccess Loc)
(declare-const f1449_0_remove_FieldAccess Loc)
(declare-const f1434_0_remove_FieldAccess Loc)
(declare-const f1453_0_remove_FieldAccess Loc)
(declare-const f1437_0_remove_FieldAccess Loc)
(declare-const f1457_0_remove_FieldAccess Loc)
(declare-const f1439_0_remove_FieldAccess Loc)
(declare-const f1460_0_remove_FieldAccess Loc)
(declare-const f412_0_createList_Load Loc)
(declare-const f834_0_createList_Load Loc)
(declare-const f424_0_createList_Return Loc)
(declare-const f898_0_random_ArrayAccess Loc)
(declare-const f1_0_main_Load Loc)
(declare-const f1193_0_entry_LE Loc)
(declare-const f1339_0_entry_GT Loc)
(declare-const f1362_0_remove_FieldAccess Loc)
(declare-const f1666_0_remove_FieldAccess Loc)
(declare-const f1791_0_remove_FieldAccess Loc)
(declare-const f1797_0_remove_FieldAccess Loc)
(declare-const f1897_0_remove_FieldAccess Loc)
(declare-const f1386_0_createList_LE Loc)
(declare-const __init Loc)
(assert (distinct f1431_0_remove_FieldAccess f1449_0_remove_FieldAccess f1434_0_remove_FieldAccess f1453_0_remove_FieldAccess f1437_0_remove_FieldAccess f1457_0_remove_FieldAccess f1439_0_remove_FieldAccess f1460_0_remove_FieldAccess f412_0_createList_Load f834_0_createList_Load f424_0_createList_Return f898_0_random_ArrayAccess f1_0_main_Load f1193_0_entry_LE f1339_0_entry_GT f1362_0_remove_FieldAccess f1666_0_remove_FieldAccess f1791_0_remove_FieldAccess f1797_0_remove_FieldAccess f1897_0_remove_FieldAccess f1386_0_createList_LE __init ))

(define-fun cfg_init ( (pc Loc) (src Loc) (rel Bool) ) Bool
  (and (= pc src) rel))

(define-fun cfg_trans2 ( (pc Loc) (src Loc)
                         (pc1 Loc) (dst Loc)
                         (rel Bool) ) Bool
  (and (= pc src) (= pc1 dst) rel))

(define-fun cfg_trans3 ( (pc Loc) (exit Loc)
                         (pc1 Loc) (call Loc)
                         (pc2 Loc) (return Loc)
                         (rel Bool) ) Bool
  (and (= pc exit) (= pc1 call) (= pc2 return) rel))

(define-fun init_main ( (pc Loc) (arg1 Int) (arg2 Int) (arg3 Int) (arg4 Int) (arg5 Int) (arg6 Int) (arg7 Int) (arg8 Int) (arg9 Int) (arg10 Int) (arg11 Int) (arg12 Int) (arg13 Int) (arg14 Int) (arg15 Int) (arg16 Int) (arg17 Int) (arg18 Int) (arg19 Int) (arg20 Int) (arg21 Int) (arg22 Int) (arg23 Int) (arg24 Int) (arg25 Int) (arg26 Int) (arg27 Int) (arg28 Int) (arg29 Int) ) Bool
  (cfg_init pc __init true))

(define-fun next_main (
                 (pc Loc) (arg1 Int) (arg2 Int) (arg3 Int) (arg4 Int) (arg5 Int) (arg6 Int) (arg7 Int) (arg8 Int) (arg9 Int) (arg10 Int) (arg11 Int) (arg12 Int) (arg13 Int) (arg14 Int) (arg15 Int) (arg16 Int) (arg17 Int) (arg18 Int) (arg19 Int) (arg20 Int) (arg21 Int) (arg22 Int) (arg23 Int) (arg24 Int) (arg25 Int) (arg26 Int) (arg27 Int) (arg28 Int) (arg29 Int)
                 (pc1 Loc) (arg1P Int) (arg2P Int) (arg3P Int) (arg4P Int) (arg5P Int) (arg6P Int) (arg7P Int) (arg8P Int) (arg9P Int) (arg10P Int) (arg11P Int) (arg12P Int) (arg13P Int) (arg14P Int) (arg15P Int) (arg16P Int) (arg17P Int) (arg18P Int) (arg19P Int) (arg20P Int) (arg21P Int) (arg22P Int) (arg23P Int) (arg24P Int) (arg25P Int) (arg26P Int) (arg27P Int) (arg28P Int) (arg29P Int)
             ) Bool
  (or
    (cfg_trans2 pc f1431_0_remove_FieldAccess pc1 f1449_0_remove_FieldAccess (and (and (and (and (and (and (and (and (and (and (and (and (and (and (and (and (and (and (and (and (and (and (and (and (and (and (and (and (and (and (and (and (and (and (and (and (and (and (and (and (and (<= arg1P arg1) (<= (+ arg1P 6) arg2)) (<= (+ arg1P 4) arg3)) (>= arg4 arg1P)) (>= arg5 (+ arg1P 2))) (<= arg3P arg3)) (>= arg4 arg4P)) (>= arg5 arg5P)) (> arg1 0)) (> arg2 6)) (> arg3 4)) (> arg4 0)) (> arg5 2)) (> arg1P 0)) (> arg2P 6)) (> arg3P 4)) (> arg4P 0)) (> arg5P 2)) (<= (+ arg9 5) arg2)) (>= arg2 (+ arg10 7))) (>= arg2 (+ arg11 7))) (>= arg2 (+ arg12 3))) (>= arg3 (+ arg13 5))) (>= arg3 (+ arg14 4))) (>= arg3 (+ arg15 6))) (>= arg3 (+ arg16 6))) (>= arg3 (+ arg17 6))) (>= arg3 (+ arg18 2))) (>= arg3 (+ arg19 4))) (>= arg3 (+ arg20 4))) (>= arg3 (+ arg21 4))) (>= arg4 (+ arg22 2))) (>= arg4 (+ arg23 2))) (>= arg4 (+ arg24 2))) (>= arg5 (+ arg25 3))) (>= arg5 (+ arg26 2))) (>= arg5 (+ arg27 4))) (>= arg5 (+ arg29 4))) (>= arg5 (+ arg28 4))) (= arg6 arg6P)) (= arg7 arg7P)) (= arg8 arg8P)))
    (cfg_trans2 pc f1434_0_remove_FieldAccess pc1 f1453_0_remove_FieldAccess (and (and (and (and (and (and (and (and (and (and (and (and (and (and (and (and (and (and (and (and (and (and (and (and (and (and (and (and (and (and (and (and (and (and (and (and (and (and (and (and (and (and (<= arg1P arg1) (<= (+ arg1P 6) arg2)) (<= (+ arg1P 4) arg3)) (<= arg1P arg4)) (<= (+ arg1P 4) arg5)) (<= arg3P arg3)) (<= arg4P arg4)) (<= arg5P arg5)) (> arg1 0)) (> arg2 6)) (> arg3 4)) (> arg4 0)) (> arg5 4)) (> arg1P 0)) (> arg2P 6)) (> arg3P 4)) (> arg4P 0)) (> arg5P 4)) (<= (+ arg8 5) arg2)) (<= (+ arg9 7) arg2)) (<= (+ arg10 7) arg2)) (<= (+ arg11 3) arg2)) (<= (+ arg12 4) arg3)) (<= (+ arg21 6) arg3)) (<= (+ arg22 6) arg3)) (<= (+ arg23 6) arg3)) (<= (+ arg13 2) arg3)) (<= (+ arg14 4) arg3)) (<= (+ arg15 4) arg3)) (<= (+ arg16 4) arg3)) (<= (+ arg17 2) arg4)) (<= (+ arg18 2) arg4)) (<= (+ arg19 2) arg4)) (<= (+ arg20 4) arg5)) (<= (+ arg21 6) arg5)) (<= (+ arg22 6) arg5)) (<= (+ arg23 6) arg5)) (<= (+ arg24 2) arg5)) (<= (+ arg25 4) arg5)) (<= (+ arg27 4) arg5)) (<= (+ arg26 4) arg5)) (= arg6 arg6P)) (= arg7 arg7P)))
    (cfg_trans2 pc f1437_0_remove_FieldAccess pc1 f1457_0_remove_FieldAccess (and (and (and (and (and (and (and (and (and (and (and (and (and (and (and (and (and (and (and (and (and (and (and (and (and (and (and (and (and (and (and (and (and (and (and (and (and (and (and (and (and (<= arg1P arg1) (<= (+ arg1P 7) arg2)) (<= (+ arg1P 4) arg3)) (<= arg1P arg4)) (<= (+ arg1P 2) arg5)) (<= arg2P arg2)) (<= arg3P arg3)) (>= arg4 arg4P)) (>= arg5 arg5P)) (> arg1 0)) (> arg2 7)) (> arg3 4)) (> arg4 0)) (> arg5 2)) (> arg1P 0)) (> arg2P 7)) (> arg3P 4)) (> arg4P 0)) (> arg5P 2)) (<= (+ arg8 5) arg2)) (<= (+ arg9 8) arg2)) (<= (+ arg10 9) arg2)) (<= (+ arg11 9) arg2)) (<= (+ arg12 9) arg2)) (<= (+ arg13 3) arg2)) (<= (+ arg14 5) arg3)) (<= (+ arg15 6) arg3)) (<= (+ arg16 6) arg3)) (<= (+ arg17 6) arg3)) (<= (+ arg18 2) arg3)) (<= (+ arg19 4) arg3)) (<= (+ arg20 4) arg3)) (<= (+ arg21 4) arg3)) (<= (+ arg22 2) arg4)) (<= (+ arg23 2) arg4)) (<= (+ arg24 2) arg4)) (<= (+ arg25 3) arg5)) (<= (+ arg26 4) arg5)) (<= (+ arg28 4) arg5)) (<= (+ arg27 4) arg5)) (= arg6 arg6P)) (= arg7 arg7P)))
    (cfg_trans2 pc f1439_0_remove_FieldAccess pc1 f1460_0_remove_FieldAccess (and (and (and (and (and (and (and (and (and (and (and (and (and (and (and (and (and (and (and (and (and (and (and (and (and (and (and (and (and (and (and (and (and (and (and (and (and (and (and (and (and (and (and (and (<= arg1P arg1) (<= (+ arg1P 9) arg2)) (<= (+ arg1P 4) arg3)) (<= arg1P arg4)) (<= (+ arg1P 4) arg5)) (<= arg2P arg2)) (<= arg3P arg3)) (<= arg4P arg4)) (<= arg5P arg5)) (> arg1 0)) (> arg2 9)) (> arg3 4)) (> arg4 0)) (> arg5 4)) (> arg1P 0)) (> arg2P 9)) (> arg3P 4)) (> arg4P 0)) (> arg5P 4)) (<= (+ arg6 5) arg2)) (<= (+ arg7 9) arg2)) (<= (+ arg8 11) arg2)) (<= (+ arg9 11) arg2)) (<= (+ arg10 11) arg2)) (<= (+ arg11 9) arg2)) (<= (+ arg12 9) arg2)) (<= (+ arg13 9) arg2)) (<= (+ arg14 3) arg2)) (<= (+ arg23 6) arg3)) (<= (+ arg24 6) arg3)) (<= (+ arg25 6) arg3)) (<= (+ arg15 2) arg3)) (<= (+ arg16 4) arg3)) (<= (+ arg17 4) arg3)) (<= (+ arg18 4) arg3)) (<= (+ arg19 2) arg4)) (<= (+ arg20 2) arg4)) (<= (+ arg21 2) arg4)) (<= (+ arg22 4) arg5)) (<= (+ arg23 6) arg5)) (<= (+ arg24 6) arg5)) (<= (+ arg25 6) arg5)) (<= (+ arg26 4) arg5)) (<= (+ arg28 4) arg5)) (<= (+ arg27 4) arg5)))
    (cfg_trans2 pc f412_0_createList_Load pc1 f834_0_createList_Load (and (and (and (and (and (and (and (and (and (and (and (and (and (and (and (and (> arg2 9) (> arg2P 9)) (<= (+ arg6 5) arg2)) (<= (+ arg7 3) arg2)) (= arg1 arg1P)) (= 0 arg3P)) (= 0 arg4P)) (= arg3 arg5P)) (= 0 arg7P)) (= 0 arg8P)) (= 0 arg9P)) (= arg3 arg13P)) (= arg4 arg14P)) (= arg4 arg15P)) (= arg5 arg17P)) (= arg6 arg18P)) (= arg7 arg21P)))
    (cfg_trans2 pc f424_0_createList_Return pc1 f898_0_random_ArrayAccess (and (and (and (and (and (and (and (and (and (and (> arg1 0) (> arg2 6)) (> arg1P 6)) (<= (+ arg6 5) arg2)) (<= (+ arg7 7) arg2)) (<= (+ arg9 3) arg2)) (<= (+ arg8 7) arg2)) (= arg3 arg2P)) (= arg4 arg3P)) (= arg6 arg5P)) (= arg9 arg8P)))
    (cfg_trans2 pc f1_0_main_Load pc1 f898_0_random_ArrayAccess (exists ((x174 Int)) (and (and (and (and (> x174 (- 1)) (> arg2 0)) (> arg1 0)) (> arg1P 6)) (= arg2 arg4P))))
    (cfg_trans2 pc f898_0_random_ArrayAccess pc1 f1193_0_entry_LE (exists ((x176 Int) (x189 Int)) (and (and (and (and (and (and (and (and (and (and (and (and (and (and (and (and (and (and (and (< x176 arg4) (> x176 0)) (> arg4P (- 1))) (<= x189 arg4P)) (< arg4P arg5)) (> arg1 6)) (> arg1P 6)) (> arg2P 1)) (<= (+ arg5 5) arg1)) (<= (+ arg6 7) arg1)) (<= (+ arg8 3) arg1)) (<= (+ arg7 7) arg1)) (= arg5 arg3P)) (= arg3 arg5P)) (= arg2 arg6P)) (= arg3 arg7P)) (= arg3 arg8P)) (= arg3 arg9P)) (= arg5 arg10P)) (= arg8 arg13P))))
    (cfg_trans2 pc f1193_0_entry_LE pc1 f1193_0_entry_LE (exists ((x210 Int)) (and (and (and (and (and (and (and (and (and (and (and (and (and (and (and (and (and (and (and (and (and (and (and (and (and (and (> arg7 0) (> arg5 0)) (> arg9 0)) (> arg5P arg5)) (> arg8 arg5)) (> arg6 0)) (< x210 arg9P)) (< arg7P arg7)) (> arg8 0)) (> x210 (- 1))) (< x210 arg9)) (< x210 arg7P)) (< arg4 arg3)) (> arg1 6)) (> arg2 2)) (> arg1P 6)) (> arg2P 0)) (<= (+ arg10 5) arg1)) (<= (+ arg11 7) arg1)) (<= (+ arg12 7) arg1)) (<= (+ arg13 3) arg1)) (= (- arg3 1) arg3P)) (= arg4 arg4P)) (= arg6 arg6P)) (= arg8 arg8P)) (= arg10 arg10P)) (= arg13 arg13P))))
    (cfg_trans2 pc f1193_0_entry_LE pc1 f1193_0_entry_LE (exists ((x228 Int)) (and (and (and (and (and (and (and (and (and (and (and (and (and (and (and (and (and (and (and (and (and (and (and (< x228 arg6) (> arg6 (- 1))) (< arg7P arg8)) (> arg8 (- 1))) (< arg4 arg3)) (> arg7P 0)) (> x228 0)) (> arg1 6)) (> arg2 1)) (> arg1P 6)) (> arg2P 0)) (<= (+ arg10 5) arg1)) (<= (+ arg11 7) arg1)) (<= (+ arg12 7) arg1)) (<= (+ arg13 3) arg1)) (= arg8 arg9)) (= (- arg3 1) arg3P)) (= arg4 arg4P)) (= 1 arg5P)) (= 0 arg6P)) (= 0 arg8P)) (= 0 arg9P)) (= arg10 arg10P)) (= arg13 arg13P))))
    (cfg_trans2 pc f1193_0_entry_LE pc1 f1193_0_entry_LE (exists ((x246 Int) (x247 Int)) (and (and (and (and (and (and (and (and (and (and (and (and (and (and (and (and (and (and (and (and (and (and (< x246 arg6) (> arg6 (- 1))) (< x247 arg8)) (> arg8 (- 1))) (> x246 0)) (< arg4 arg3)) (> arg1 6)) (> arg2 1)) (> arg1P 6)) (> arg2P 2)) (<= (+ arg10 5) arg1)) (<= (+ arg11 7) arg1)) (<= (+ arg12 7) arg1)) (<= (+ arg13 3) arg1)) (= arg8 arg9)) (= (- arg3 1) arg3P)) (= arg4 arg4P)) (= 1 arg5P)) (= 1 arg7P)) (= 1 arg8P)) (= 1 arg9P)) (= arg10 arg10P)) (= arg13 arg13P))))
    (cfg_trans2 pc f1193_0_entry_LE pc1 f1193_0_entry_LE (exists ((x266 Int)) (and (and (and (and (and (and (and (and (and (and (and (and (and (and (and (and (and (and (and (and (and (< x266 arg6) (> arg6 (- 1))) (< arg7P arg8)) (> arg8 (- 1))) (> arg7P 0)) (< arg4 arg3)) (> arg1 6)) (> arg2 1)) (> arg1P 6)) (> arg2P 0)) (<= (+ arg10 5) arg1)) (<= (+ arg11 7) arg1)) (<= (+ arg12 7) arg1)) (<= (+ arg13 3) arg1)) (= arg8 arg9)) (= (- arg3 1) arg3P)) (= arg4 arg4P)) (= 1 arg5P)) (= 1 arg6P)) (= 0 arg9P)) (= arg10 arg10P)) (= arg13 arg13P))))
    (cfg_trans2 pc f1193_0_entry_LE pc1 f1193_0_entry_LE (exists ((x283 Int) (x284 Int)) (and (and (and (and (and (and (and (and (and (and (and (and (and (and (and (and (and (and (and (and (and (and (and (and (< x283 arg6) (> arg6 (- 1))) (< x284 arg8)) (< arg4 arg3)) (> arg8 (- 1))) (<= (+ arg2P 4) arg1)) (<= (- arg2P 1) arg2)) (> arg1 6)) (> arg2 1)) (> arg1P 6)) (> arg2P 2)) (<= (+ arg10 5) arg1)) (<= (+ arg11 7) arg1)) (<= (+ arg12 7) arg1)) (<= (+ arg13 3) arg1)) (= arg8 arg9)) (= (- arg3 1) arg3P)) (= arg4 arg4P)) (= 1 arg5P)) (= 1 arg6P)) (= 1 arg7P)) (= 1 arg8P)) (= 1 arg9P)) (= arg10 arg10P)) (= arg13 arg13P))))
    (cfg_trans2 pc f898_0_random_ArrayAccess pc1 f1339_0_entry_GT (exists ((x286 Int) (x296 Int)) (and (and (and (and (and (and (and (and (and (and (and (and (and (and (and (and (< x286 arg4) (> x286 0)) (> arg3P (- 1))) (> x296 arg3P)) (< arg3P arg5)) (> arg1 6)) (> arg1P 1)) (<= (+ arg5 5) arg1)) (<= (+ arg6 7) arg1)) (<= (+ arg8 3) arg1)) (<= (+ arg7 7) arg1)) (= 0 arg2P)) (= arg2 arg4P)) (= arg3 arg5P)) (= arg2 arg6P)) (= arg2 arg7P)) (= arg2 arg8P))))
    (cfg_trans2 pc f1193_0_entry_LE pc1 f1362_0_remove_FieldAccess (exists ((x314 Int) (x315 Int) (x316 Int) (x318 Int) (x317 Int) (x319 Int) (x320 Int)) (and (and (and (and (and (and (and (and (and (and (and (and (and (and (and (and (and (and (and (and (and (and (and (and (and (> arg9 0) (> arg7 0)) (> arg6 0)) (> arg5 0)) (> x314 (- 1))) (< x315 x314)) (< x316 arg7)) (> arg8 0)) (< x318 x317)) (< x319 arg9)) (> x317 (- 1))) (>= arg4 arg3)) (> x320 arg3P)) (> x319 (- 1))) (> x320 (- 1))) (> x319 arg3P)) (> arg1 6)) (> arg2 4)) (> arg1P 7)) (> arg2P 4)) (<= (+ arg10 5) arg1)) (<= (+ arg11 7) arg1)) (<= (+ arg12 7) arg1)) (<= (+ arg13 3) arg1)) (= arg10 arg4P)) (= arg13 arg5P))))
    (cfg_trans2 pc f1193_0_entry_LE pc1 f1362_0_remove_FieldAccess (exists ((x338 Int) (x339 Int) (x340 Int) (x342 Int) (x341 Int) (x343 Int) (x344 Int) (x345 Int)) (and (and (and (and (and (and (and (and (and (and (and (and (and (and (and (and (and (and (and (and (and (and (and (and (and (and (> arg9 0) (> arg7 0)) (> arg6 0)) (> arg5 0)) (> x338 (- 1))) (< x339 x338)) (< x340 arg7)) (> arg8 0)) (< x342 x341)) (< x343 arg9)) (> x341 (- 1))) (>= arg4 arg3)) (> x344 arg3P)) (> x343 (- 1))) (> x343 arg3P)) (> x345 0)) (> x344 (- 1))) (> arg1 6)) (> arg2 4)) (> arg1P 7)) (> arg2P 4)) (<= (+ arg10 5) arg1)) (<= (+ arg11 7) arg1)) (<= (+ arg12 7) arg1)) (<= (+ arg13 3) arg1)) (= arg10 arg4P)) (= arg13 arg5P))))
    (cfg_trans2 pc f1193_0_entry_LE pc1 f1431_0_remove_FieldAccess (exists ((x385 Int) (x386 Int)) (and (and (and (and (and (and (and (and (and (and (and (and (and (and (and (and (and (and (and (and (and (and (and (and (and (and (and (> arg9 0) (> arg7 0)) (> arg6 0)) (> arg5 0)) (< x385 arg7)) (> arg8 0)) (< x386 arg9)) (>= arg4 arg3)) (> x386 (- 1))) (> x386 arg8P)) (> arg8P 0)) (<= (+ arg1P 6) arg1)) (<= (+ arg1P 4) arg2)) (> arg1 6)) (> arg2 4)) (> arg1P 0)) (> arg2P 6)) (> arg3P 4)) (> arg4P 0)) (> arg5P 2)) (<= (+ arg10 5) arg1)) (<= (+ arg11 7) arg1)) (<= (+ arg12 7) arg1)) (<= (+ arg13 3) arg1)) (= arg8 arg6P)) (= arg5 arg7P)) (= arg10 arg9P)) (= arg13 arg12P))))
    (cfg_trans2 pc f1193_0_entry_LE pc1 f1434_0_remove_FieldAccess (exists ((x424 Int) (x425 Int) (x426 Int)) (and (and (and (and (and (and (and (and (and (and (and (and (and (and (and (and (and (and (and (and (and (and (and (and (and (and (> arg9 0) (> arg7 0)) (> arg6 0)) (> arg5 0)) (< x424 arg7)) (> arg8 0)) (< x425 arg9)) (>= arg4 arg3)) (> x425 (- 1))) (< x426 x425)) (<= (+ arg1P 6) arg1)) (<= (+ arg1P 4) arg2)) (> arg1 6)) (> arg2 4)) (> arg1P 0)) (> arg2P 6)) (> arg3P 4)) (> arg4P 0)) (> arg5P 4)) (<= (+ arg10 5) arg1)) (<= (+ arg11 7) arg1)) (<= (+ arg12 7) arg1)) (<= (+ arg13 3) arg1)) (= arg8 arg6P)) (= arg5 arg7P)) (= arg10 arg8P)) (= arg13 arg11P))))
    (cfg_trans2 pc f1362_0_remove_FieldAccess pc1 f1437_0_remove_FieldAccess (and (and (and (and (and (and (and (and (and (and (and (and (and (and (and (and (and (and (and (and (and (and (and (and (and (and (and (and (and (<= (+ arg1P 7) arg1) (> arg3 0)) (<= (+ arg1P 4) arg2)) (<= arg2P arg1)) (<= arg3P arg2)) (> arg1 7)) (> arg2 4)) (> arg1P 0)) (> arg2P 7)) (> arg3P 4)) (> arg4P 0)) (> arg5P 2)) (<= (+ arg4 5) arg1)) (<= (+ arg9P 8) arg1)) (<= (+ arg10P 9) arg1)) (<= (+ arg11P 9) arg1)) (<= (+ arg12P 9) arg1)) (<= (+ arg5 3) arg1)) (<= (+ arg14P 5) arg2)) (<= (+ arg15P 6) arg2)) (<= (+ arg16P 6) arg2)) (<= (+ arg17P 6) arg2)) (<= (+ arg6 2) arg2)) (<= (+ arg19P 4) arg2)) (<= (+ arg21P 4) arg2)) (<= (+ arg20P 4) arg2)) (= arg3 arg7P)) (= arg4 arg8P)) (= arg5 arg13P)) (= arg6 arg18P)))
    (cfg_trans2 pc f1362_0_remove_FieldAccess pc1 f1439_0_remove_FieldAccess (and (and (and (and (and (and (and (and (and (and (and (and (and (and (and (and (and (and (and (and (and (and (and (and (and (and (and (and (and (<= (+ arg1P 9) arg1) (<= (+ arg1P 4) arg2)) (<= arg2P arg1)) (<= arg3P arg2)) (> arg1 9)) (> arg2 4)) (> arg1P 0)) (> arg2P 9)) (> arg3P 4)) (> arg4P 0)) (> arg5P 4)) (<= (+ arg4 5) arg1)) (<= (+ arg7P 9) arg1)) (<= (+ arg8P 11) arg1)) (<= (+ arg9P 11) arg1)) (<= (+ arg10P 11) arg1)) (<= (+ arg11P 9) arg1)) (<= (+ arg12P 9) arg1)) (<= (+ arg13P 9) arg1)) (<= (+ arg5 3) arg1)) (<= (+ arg23P 6) arg2)) (<= (+ arg24P 6) arg2)) (<= (+ arg25P 6) arg2)) (<= (+ arg6 2) arg2)) (<= (+ arg16P 4) arg2)) (<= (+ arg18P 4) arg2)) (<= (+ arg17P 4) arg2)) (= arg4 arg6P)) (= arg5 arg14P)) (= arg6 arg15P)))
    (cfg_trans2 pc f1339_0_entry_GT pc1 f1339_0_entry_GT (exists ((x502 Int)) (and (and (and (and (and (and (and (and (and (and (and (and (and (and (and (and (and (and (> arg7 0) (> arg6 0)) (> arg8 0)) (> arg6P arg6)) (< arg6 arg4)) (> arg5 0)) (> arg4 0)) (< x502 arg7P)) (< x502 arg7)) (> x502 (- 1))) (< arg8P arg8)) (< x502 arg8P)) (>= arg3 arg2)) (> arg1 2)) (> arg1P 0)) (= (+ arg2 1) arg2P)) (= arg3 arg3P)) (= arg4 arg4P)) (= arg5 arg5P))))
    (cfg_trans2 pc f1339_0_entry_GT pc1 f1339_0_entry_GT (exists ((x512 Int)) (and (and (and (and (and (and (and (and (and (and (and (and (and (and (and (< arg8P arg4) (> arg4 (- 1))) (< x512 arg5)) (> arg5 (- 1))) (>= arg3 arg2)) (> x512 0)) (> arg8P 0)) (> arg1 1)) (> arg1P 0)) (= arg4 arg7)) (= (+ arg2 1) arg2P)) (= arg3 arg3P)) (= 0 arg4P)) (= 0 arg5P)) (= 1 arg6P)) (= 0 arg7P))))
    (cfg_trans2 pc f1339_0_entry_GT pc1 f1339_0_entry_GT (exists ((x523 Int)) (and (and (and (and (and (and (and (and (and (and (and (and (and (< arg8P arg4) (> arg4 (- 1))) (< x523 arg5)) (> arg5 (- 1))) (> arg8P 0)) (>= arg3 arg2)) (> arg1 1)) (> arg1P 0)) (= arg4 arg7)) (= (+ arg2 1) arg2P)) (= arg3 arg3P)) (= 1 arg5P)) (= 1 arg6P)) (= 0 arg7P))))
    (cfg_trans2 pc f1339_0_entry_GT pc1 f1339_0_entry_GT (exists ((x533 Int) (x534 Int)) (and (and (and (and (and (and (and (and (and (and (and (and (and (and (< x533 arg4) (> arg4 (- 1))) (< x534 arg5)) (> arg5 (- 1))) (> x534 0)) (>= arg3 arg2)) (> arg1 1)) (> arg1P 2)) (= arg4 arg7)) (= (+ arg2 1) arg2P)) (= arg3 arg3P)) (= 1 arg4P)) (= 1 arg6P)) (= 1 arg7P)) (= 1 arg8P))))
    (cfg_trans2 pc f1339_0_entry_GT pc1 f1339_0_entry_GT (exists ((x543 Int) (x544 Int)) (and (and (and (and (and (and (and (and (and (and (and (and (and (and (and (< x543 arg4) (> arg4 (- 1))) (< x544 arg5)) (>= arg3 arg2)) (> arg5 (- 1))) (<= (- arg1P 1) arg1)) (> arg1 1)) (> arg1P 2)) (= arg4 arg7)) (= (+ arg2 1) arg2P)) (= arg3 arg3P)) (= 1 arg4P)) (= 1 arg5P)) (= 1 arg6P)) (= 1 arg7P)) (= 1 arg8P))))
    (cfg_trans2 pc f1339_0_entry_GT pc1 f1666_0_remove_FieldAccess (exists ((x559 Int)) (and (and (and (and (and (and (and (and (and (and (and (and (and (and (> arg8 0) (> arg7 0)) (> arg5 0)) (> arg4 0)) (> arg6 0)) (< arg4P arg7)) (< x559 arg8)) (< arg3 arg2)) (<= arg1P arg1)) (> arg1 2)) (> arg1P 2)) (> arg2P 0)) (<= (+ arg6P 3) arg1)) (<= (+ arg5P 2) arg1)) (= arg5 arg3P))))
    (cfg_trans2 pc f1666_0_remove_FieldAccess pc1 f1791_0_remove_FieldAccess (and (and (and (and (and (and (and (and (and (and (and (and (and (<= (+ arg1P 2) arg1) (> arg3 0)) (<= arg1P arg2)) (> arg1 2)) (> arg2 0)) (> arg1P 0)) (> arg2P 6)) (> arg3P 4)) (> arg4P 0)) (> arg5P 2)) (<= (+ arg5 2) arg1)) (<= (+ arg6 3) arg1)) (<= (+ arg7 2) arg2)) (= arg3 arg6P)))
    (cfg_trans2 pc f1339_0_entry_GT pc1 f1797_0_remove_FieldAccess (exists ((x587 Int) (x588 Int) (x590 Int) (x589 Int) (x591 Int) (x592 Int) (x594 Int) (x593 Int)) (and (and (and (and (and (and (and (and (and (and (and (and (and (and (and (and (and (and (and (and (> arg8 0) (> arg7 0)) (> arg5 0)) (> arg4 0)) (> x587 (- 1))) (< x588 x587)) (> arg6 0)) (< x590 x589)) (< x591 arg7)) (> x589 (- 1))) (< x592 arg8)) (< x594 x593)) (> x593 (- 1))) (< arg3 arg2)) (<= (+ arg1P 4) arg1)) (> arg1 4)) (> arg1P 0)) (> arg2P 7)) (> arg3P 4)) (> arg4P 0)) (> arg5P 2))))
    (cfg_trans2 pc f1339_0_entry_GT pc1 f1797_0_remove_FieldAccess (exists ((x609 Int) (x610 Int) (x612 Int) (x611 Int) (x613 Int) (x614 Int) (x616 Int) (x615 Int) (x617 Int)) (and (and (and (and (and (and (and (and (and (and (and (and (and (and (and (and (and (and (and (and (and (> arg8 0) (> arg7 0)) (> arg5 0)) (> arg4 0)) (> x609 (- 1))) (< x610 x609)) (> arg6 0)) (< x612 x611)) (< x613 arg7)) (> x611 (- 1))) (< x614 arg8)) (< x616 x615)) (< arg3 arg2)) (> x617 0)) (> x615 (- 1))) (<= (+ arg1P 4) arg1)) (> arg1 4)) (> arg1P 0)) (> arg2P 7)) (> arg3P 4)) (> arg4P 0)) (> arg5P 2))))
    (cfg_trans2 pc f1666_0_remove_FieldAccess pc1 f1897_0_remove_FieldAccess (exists ((x631 Int) (x630 Int) (x633 Int) (x632 Int) (x634 Int)) (and (and (and (and (and (and (and (and (and (and (and (and (and (and (and (and (and (and (and (< x631 x630) (> x630 (- 1))) (< x633 x632)) (> x632 (- 1))) (> x634 arg4P)) (> x634 (- 1))) (< arg4P arg4)) (> arg4 (- 1))) (<= (+ arg1P 2) arg1)) (<= (+ arg1P 2) arg2)) (> arg1 2)) (> arg2 2)) (> arg1P 0)) (> arg2P 9)) (> arg3P 4)) (<= (+ arg5 2) arg1)) (<= (+ arg6 3) arg1)) (<= (+ arg6 3) arg2)) (<= (+ arg5 2) arg2)) (= arg5 arg7))))
    (cfg_trans2 pc f1666_0_remove_FieldAccess pc1 f1897_0_remove_FieldAccess (exists ((x648 Int) (x647 Int) (x650 Int) (x649 Int) (x651 Int) (x652 Int)) (and (and (and (and (and (and (and (and (and (and (and (and (and (and (and (and (and (and (and (and (< x648 x647) (> x647 (- 1))) (< x650 x649)) (> x649 (- 1))) (> x651 arg4P)) (> x651 (- 1))) (> arg4 (- 1))) (> x652 0)) (< arg4P arg4)) (<= (+ arg1P 2) arg1)) (<= (+ arg1P 2) arg2)) (> arg1 2)) (> arg2 2)) (> arg1P 0)) (> arg2P 9)) (> arg3P 4)) (<= (+ arg5 2) arg1)) (<= (+ arg6 3) arg1)) (<= (+ arg6 3) arg2)) (<= (+ arg5 2) arg2)) (= arg5 arg7))))
    (cfg_trans2 pc f1_0_main_Load pc1 f412_0_createList_Load (and (and (and (and (and (and (and (> arg1P (- 1)) (> arg2 0)) (<= (- arg2P 7) arg1)) (> arg1 0)) (> arg2P 7)) (= 1 arg5P)) (= 0 arg6P)) (= 0 arg7P)))
    (cfg_trans2 pc f834_0_createList_Load pc1 f1386_0_createList_LE (and (and (and (and (and (and (and (and (and (and (and (and (and (and (and (and (and (and (and (and (and (and (> arg2 11) (> arg1P 11)) (<= (+ arg18 5) arg2)) (<= (+ arg19 9) arg2)) (<= (+ arg20 9) arg2)) (<= (+ arg21 3) arg2)) (= arg1 arg2P)) (= arg4 arg3P)) (= arg5 arg4P)) (= arg11 arg5P)) (= arg10 arg6P)) (= arg3 arg7P)) (= arg6 arg8P)) (= arg7 arg9P)) (= arg8 arg10P)) (= arg9 arg11P)) (= arg12 arg12P)) (= arg13 arg13P)) (= arg14 arg14P)) (= arg15 arg15P)) (= arg17 arg16P)) (= arg18 arg17P)) (= arg21 arg23P)))
    (cfg_trans2 pc f1386_0_createList_LE pc1 f1386_0_createList_LE (exists ((x686 Int) (x727 Int)) (and (and (and (and (and (and (and (and (and (and (and (and (and (and (and (and (and (and (and (and (and (and (and (and (and (and (and (and (and (and (and (and (and (and (> arg2 0) (> x686 (- 1))) (> arg16 0)) (< arg16 x686)) (> arg4 0)) (> arg3 0)) (> arg7 0)) (> arg6 0)) (> arg5 0)) (> arg15 0)) (> x727 (- 1))) (> arg9 0)) (> arg12 0)) (> arg10 0)) (> arg14 0)) (> arg13 0)) (> arg11 0)) (> arg8 0)) (> arg23 (- 1))) (> arg17 (- 1))) (> arg1 11)) (> arg1P 11)) (<= (+ arg17 5) arg1)) (<= (+ arg18 9) arg1)) (<= (+ arg19 9) arg1)) (<= (+ arg20 9) arg1)) (<= (+ arg21 11) arg1)) (<= (+ arg23 3) arg1)) (<= (+ arg22 11) arg1)) (= (- arg2 1) arg2P)) (= arg3 arg3P)) (= arg4 arg4P)) (= (+ arg16 1) arg16P)) (= (+ arg17 1) arg17P)) (= (+ arg23 1) arg23P))))
    (cfg_trans2 pc __init pc1 f1_0_main_Load true)
  )
)
